31634
15827
4744
19780
14360
15628
2469
12810
15444
25630
2388
3625
14971
7122
31752
1873
28577
21355
8370
7716
21518
32129
13815
3858
5205
27231
13879
27982
11136
2030
13301
12581
11703
20053
16242
4763
11309
25762
30562
26602
26576
15974
19964
5033
27467
5092
25829
13434
17920
25558
2341
6644
30352
5530
28980
7359
27953
16738
5904
14538
24682
31792
19624
15528
27157
2742
24515
14872
1435
2185
26484
29785
2090
6127
32066
2192
24452
29798
24555
20726
72
32101
7628
31058
38
32495
4129
7700
29392
20684
11323
25154
1073
24217
17478
23158
5924
28839
32739
13125
